1654074000
1654086600
1654162620
1654180620
1654248600
1654266600
1654593300
1654614000
1654681440
1654699440
1654770600
1654785000
1654853400
1654876800
1655200200
1655216400
1655289000
1655304300
1655371800
1655388900
1655465400
1655472600
1655721000
1655731800
1655807400
1655823600
1655890200
1655909700
1655979600
1655988600
1656069300
1656081900
1656325800
1656342000
1656412200
1656419400
1656498600
1656514800
1656585000
1656594900
